90 
300 
-0.5 0 0 0
0.5 0 0 -15
-7 -7 35 -25
-7 -5 -35 -81
-7 -3 -35 -78
-7 -1 35 -10
-7 1 35 -16
-7 3 -35 -98
-7 5 35 -28
-7 7 35 -19
-5 -7 35 -17
-5 -5 -25 -100
-5 -3 -25 -75
-5 -1 -25 -116
-5 1 25 -26
-5 3 25 -21
-5 5 25 -13
-5 7 35 -16
-3 -7 -35 -109
-3 -5 -25 -91
-3 -3 -15 -75
-3 -1 15 -10
-3 1 15 -25
-3 3 -15 -90
-3 5 -25 -114
-3 7 -35 -138
-1 -7 35 -12
-1 -5 25 -10
-1 -3 15 -26
-1 -1 5 -24
-1 1 -5 -73
-1 3 15 -25
-1 5 25 -13
-1 7 35 -13
1 -7 -35 -126
1 -5 25 -11
1 -3 -15 -94
1 -1 5 -22
1 1 -5 -124
1 3 -15 -134
1 5 -25 -74
1 7 -35 -132
3 -7 35 -27
3 -5 -25 -116
3 -3 15 -12
3 -1 15 -23
3 1 -15 -89
3 3 -15 -129
3 5 -25 -63
3 7 -35 -91
5 -7 -35 -96
5 -5 25 -27
5 -3 -25 -75
5 -1 25 -14
5 1 25 -29
5 3 25 -28
5 5 -25 -93
5 7 -35 -68
7 -7 -35 -133
7 -5 -35 -114
7 -3 -35 -74
7 -1 35 -27
7 1 -35 -122
7 3 -35 -93
7 5 35 -23
7 7 -35 -112
